param d := 
1 1000
2 1;
param C :=
1 1 1
1 2 1
1 3 1
1 4 1
2 5 1
2 6 1
2 7 1
2 8 1
;
param A :=
1 1 1
1 5 -1000
2 2 1
2 6 -1000
3 3 1
3 7 -1000
4 4 1
4 8 -1000
5 1 1
6 2 1
7 3 1
8 4 1
9 5 1
10 6 1
11 7 1
12 8 1;

param b :=
5 1000
6 1000
7 1000
8 1000
9 1
10 1
11 1
12 1;




